============================[ Problem Statistics ]=============================|                                                                             ||  Number of variables:          4242                                         ||  Number of clauses:           10326                                         ||  Parse time:                   0.72 s                                       ||                                                                             |============================[ Search Statistics ]==============================| Conflicts |          ORIGINAL         |          LEARNT          | Progress ||           |    Vars  Clauses Literals |    Limit  Clauses Lit/Cl |          |===============================================================================|       100 |    1591     6531  1138222 |     2394      100     53 | 62.501 % ||       250 |    1591     6531  1138222 |     2634      250     75 | 62.495 % |===============================================================================restarts              : 3conflicts             : 387            (355 /sec)decisions             : 651            (0.00 % random) (598 /sec)propagations          : 12029          (11046 /sec)conflict literals     : 31954          (94.57 % deleted)CPU time              : 1.089 sSATISFIABLE